param set_len = 24;
param target_sum = 6279503445;
param values := [1] 983335646 [2] 941266645 [3] 710992821 [4] 798443763 [5] 642224004 [6] 778624445 [7] 221842211 [8] 771906937 [9] 586380329 [10] 11016076 [11] 203625470 [12] 975513941 [13] 912443255 [14] 884466085 [15] 620498865 [16] 985465027 [17] 569076514 [18] 166898912 [19] 641640849 [20] 2672062 [21] 321583479 [22] 912476531 [23] 285695001 [24] 454238218 ;
